NAME : B-n57-k7.1153.tour
COMMENT : Cost = 0_1153
COMMENT : Found by LKH [Keld Helsgaun] Wed Sep 13 11:38:49 2017
TYPE : TOUR
DIMENSION : 63
TOUR_SECTION
1
26
29
9
10
52
37
39
13
54
19
61
49
46
7
32
12
16
63
17
25
18
35
20
42
27
57
62
55
36
30
41
5
47
24
6
58
50
45
22
11
4
14
34
28
60
53
51
38
40
43
31
3
56
2
59
23
15
8
44
21
48
33
-1
EOF
